L(K(6))
15
-1 6 10 13 15 5 4 3 2
-2 7 11 14 15 5 4 3
-3 8 12 14 13 5 4
-4 9 12 11 10 5
-5 9 8 7 6
-6 10 13 15 9 8 7
-7 11 14 15 9 8
-8 12 14 13 9
-9 12 11 10
-10 13 15 12 11
-11 14 15 12
-12 14 13
-13 15 14
-14 15 0 